VRPTWMS/instances/mip/fuel/5/N5-C_DV100-C_SV25_F5_4_No_1.lp
\ N5-C_DV100-C_SV25_F5_4

Minimize
  18.97 x_d0_c1 + 18.97 z_d0_c1 + 6.0 x_d0_c2 + 6.0 z_d0_c2 + 23.77 x_d0_c3 + 23.77 z_d0_c3 + 25.5 x_d0_c4 + 25.5 z_d0_c4 + 29.97 x_d0_c5 + 29.97 z_d0_c5 + 24.74 x_c1_c2 + 24.74 x_c2_c1 + 24.74 z_c1_c2 + 24.74 z_c2_c1 + 42.72 x_c1_c3 + 42.72 x_c3_c1 + 42.72 z_c1_c3 + 42.72 z_c3_c1 + 38.6 x_c1_c4 + 38.6 x_c4_c1 + 38.6 z_c1_c4 + 38.6 z_c4_c1 + 45.28 x_c1_c5 + 45.28 x_c5_c1 + 45.28 z_c1_c5 + 45.28 z_c5_c1 + 18.36 x_c2_c3 + 18.36 x_c3_c2 + 18.36 z_c2_c3 + 18.36 z_c3_c2 + 25.02 x_c2_c4 + 25.02 x_c4_c2 + 25.02 z_c2_c4 + 25.02 z_c4_c2 + 27.89 x_c2_c5 + 27.89 x_c5_c2 + 27.89 z_c2_c5 + 27.89 z_c5_c2 + 23.35 x_c3_c4 + 23.35 x_c4_c3 + 23.35 z_c3_c4 + 23.35 z_c4_c3 + 20.12 x_c3_c5 + 20.12 x_c5_c3 + 20.12 z_c3_c5 + 20.12 z_c5_c3 + 8.25 x_c4_c5 + 8.25 x_c5_c4 + 8.25 z_c4_c5 + 8.25 z_c5_c4 + 18.97 x_c1_dN + 18.97 z_c1_dN + 6.0 x_c2_dN + 6.0 z_c2_dN + 23.77 x_c3_dN + 23.77 z_c3_dN + 25.5 x_c4_dN + 25.5 z_c4_dN + 29.97 x_c5_dN + 29.97 z_c5_dN + 1000.0 x_d0_c1 + 1000.0 z_d0_c1 + 1000.0 x_d0_c2 + 1000.0 z_d0_c2 + 1000.0 x_d0_c3 + 1000.0 z_d0_c3 + 1000.0 x_d0_c4 + 1000.0 z_d0_c4 + 1000.0 x_d0_c5 + 1000.0 z_d0_c5
Subject To
  Successor_DV_c1: x_c1_c2 + x_c1_c3 + x_c1_c4 + x_c1_c5 + x_c1_dN = 1
  Successor_DV_c2: x_c2_c1 + x_c2_c3 + x_c2_c4 + x_c2_c5 + x_c2_dN = 1
  Successor_DV_c3: x_c3_c1 + x_c3_c2 + x_c3_c4 + x_c3_c5 + x_c3_dN = 1
  Successor_DV_c4: x_c4_c1 + x_c4_c2 + x_c4_c3 + x_c4_c5 + x_c4_dN = 1
  Successor_DV_c5: x_c5_c1 + x_c5_c2 + x_c5_c3 + x_c5_c4 + x_c5_dN = 1
  Successor_SV_c1: z_c1_c2 + z_c1_c3 + z_c1_c4 + z_c1_c5 + z_c1_dN <= 1
  Successor_SV_c2: z_c2_c1 + z_c2_c3 + z_c2_c4 + z_c2_c5 + z_c2_dN <= 1
  Successor_SV_c3: z_c3_c1 + z_c3_c2 + z_c3_c4 + z_c3_c5 + z_c3_dN <= 1
  Successor_SV_c4: z_c4_c1 + z_c4_c2 + z_c4_c3 + z_c4_c5 + z_c4_dN <= 1
  Successor_SV_c5: z_c5_c1 + z_c5_c2 + z_c5_c3 + z_c5_c4 + z_c5_dN <= 1
  Flow_DV_c1: x_d0_c1 + x_c2_c1 + x_c3_c1 + x_c4_c1 + x_c5_c1 - x_c1_dN - x_c1_c2 - x_c1_c3 - x_c1_c4 - x_c1_c5 = 0
  Flow_DV_c2: x_d0_c2 + x_c1_c2 + x_c3_c2 + x_c4_c2 + x_c5_c2 - x_c2_dN - x_c2_c1 - x_c2_c3 - x_c2_c4 - x_c2_c5 = 0
  Flow_DV_c3: x_d0_c3 + x_c1_c3 + x_c2_c3 + x_c4_c3 + x_c5_c3 - x_c3_dN - x_c3_c1 - x_c3_c2 - x_c3_c4 - x_c3_c5 = 0
  Flow_DV_c4: x_d0_c4 + x_c1_c4 + x_c2_c4 + x_c3_c4 + x_c5_c4 - x_c4_dN - x_c4_c1 - x_c4_c2 - x_c4_c3 - x_c4_c5 = 0
  Flow_DV_c5: x_d0_c5 + x_c1_c5 + x_c2_c5 + x_c3_c5 + x_c4_c5 - x_c5_dN - x_c5_c1 - x_c5_c2 - x_c5_c3 - x_c5_c4 = 0
  Flow_SV_c1: z_d0_c1 + z_c2_c1 + z_c3_c1 + z_c4_c1 + z_c5_c1 - z_c1_dN - z_c1_c2 - z_c1_c3 - z_c1_c4 - z_c1_c5 = 0
  Flow_SV_c2: z_d0_c2 + z_c1_c2 + z_c3_c2 + z_c4_c2 + z_c5_c2 - z_c2_dN - z_c2_c1 - z_c2_c3 - z_c2_c4 - z_c2_c5 = 0
  Flow_SV_c3: z_d0_c3 + z_c1_c3 + z_c2_c3 + z_c4_c3 + z_c5_c3 - z_c3_dN - z_c3_c1 - z_c3_c2 - z_c3_c4 - z_c3_c5 = 0
  Flow_SV_c4: z_d0_c4 + z_c1_c4 + z_c2_c4 + z_c3_c4 + z_c5_c4 - z_c4_dN - z_c4_c1 - z_c4_c2 - z_c4_c3 - z_c4_c5 = 0
  Flow_SV_c5: z_d0_c5 + z_c1_c5 + z_c2_c5 + z_c3_c5 + z_c4_c5 - z_c5_dN - z_c5_c1 - z_c5_c2 - z_c5_c3 - z_c5_c4 = 0
  travelDV_d0_c1: tauD_d0 - tauD_c1 + 104.7425 x_d0_c1 <= 100.0
  travelDV_d0_c2: tauD_d0 - tauD_c2 + 101.5 x_d0_c2 <= 100.0
  travelDV_d0_c3: tauD_d0 - tauD_c3 + 105.9425 x_d0_c3 <= 100.0
  travelDV_d0_c4: tauD_d0 - tauD_c4 + 106.375 x_d0_c4 <= 100.0
  travelDV_d0_c5: tauD_d0 - tauD_c5 + 107.4925 x_d0_c5 <= 100.0
  travelDV_c1_c2: tauD_c1 - tauD_c2 + 109.185 x_c1_c2 + 8.0 p_1 <= 100.0
  travelDV_c1_c3: tauD_c1 - tauD_c3 + 113.68 x_c1_c3 + 8.0 p_1 <= 100.0
  travelDV_c1_c4: tauD_c1 - tauD_c4 + 112.65 x_c1_c4 + 8.0 p_1 <= 100.0
  travelDV_c1_c5: tauD_c1 - tauD_c5 + 114.32 x_c1_c5 + 8.0 p_1 <= 100.0
  travelDV_c2_c1: tauD_c2 - tauD_c1 + 112.185 x_c2_c1 + 8.0 p_2 <= 100.0
  travelDV_c2_c3: tauD_c2 - tauD_c3 + 110.59 x_c2_c3 + 8.0 p_2 <= 100.0
  travelDV_c2_c4: tauD_c2 - tauD_c4 + 112.255 x_c2_c4 + 8.0 p_2 <= 100.0
  travelDV_c2_c5: tauD_c2 - tauD_c5 + 112.9725 x_c2_c5 + 8.0 p_2 <= 100.0
  travelDV_c3_c1: tauD_c3 - tauD_c1 + 114.68 x_c3_c1 + 8.0 p_3 <= 100.0
  travelDV_c3_c2: tauD_c3 - tauD_c2 + 108.59 x_c3_c2 + 8.0 p_3 <= 100.0
  travelDV_c3_c4: tauD_c3 - tauD_c4 + 109.8375 x_c3_c4 + 8.0 p_3 <= 100.0
  travelDV_c3_c5: tauD_c3 - tauD_c5 + 109.03 x_c3_c5 + 8.0 p_3 <= 100.0
  travelDV_c4_c1: tauD_c4 - tauD_c1 + 114.65 x_c4_c1 + 8.0 p_4 <= 100.0
  travelDV_c4_c2: tauD_c4 - tauD_c2 + 111.255 x_c4_c2 + 8.0 p_4 <= 100.0
  travelDV_c4_c3: tauD_c4 - tauD_c3 + 110.8375 x_c4_c3 + 8.0 p_4 <= 100.0
  travelDV_c4_c5: tauD_c4 - tauD_c5 + 107.0625 x_c4_c5 + 8.0 p_4 <= 100.0
  travelDV_c5_c1: tauD_c5 - tauD_c1 + 116.32 x_c5_c1 + 8.0 p_5 <= 100.0
  travelDV_c5_c2: tauD_c5 - tauD_c2 + 111.9725 x_c5_c2 + 8.0 p_5 <= 100.0
  travelDV_c5_c3: tauD_c5 - tauD_c3 + 110.03 x_c5_c3 + 8.0 p_5 <= 100.0
  travelDV_c5_c4: tauD_c5 - tauD_c4 + 107.0625 x_c5_c4 + 8.0 p_5 <= 100.0
  TravelSV_d0_c1: tauS_d0 - tauS_c1 + 100.0 z_d0_c1 <= 95.2575
  TravelSV_d0_c2: tauS_d0 - tauS_c2 + 100.0 z_d0_c2 <= 98.5
  TravelSV_d0_c3: tauS_d0 - tauS_c3 + 100.0 z_d0_c3 <= 94.0575
  TravelSV_d0_c4: tauS_d0 - tauS_c4 + 100.0 z_d0_c4 <= 93.625
  TravelSV_d0_c5: tauS_d0 - tauS_c5 + 100.0 z_d0_c5 <= 92.5075
  TravelSV_d0_dN: tauS_d0 - tauS_dN + 100.0 z_d0_dN <= 100.0
  TravelSV_c1_c2: tauS_c1 - tauS_c2 + 100.0 z_c1_c2 <= 85.815
  TravelSV_c1_c3: tauS_c1 - tauS_c3 + 100.0 z_c1_c3 <= 81.32
  TravelSV_c1_c4: tauS_c1 - tauS_c4 + 100.0 z_c1_c4 <= 82.35
  TravelSV_c1_c5: tauS_c1 - tauS_c5 + 100.0 z_c1_c5 <= 80.68
  TravelSV_c1_dN: tauS_c1 - tauS_dN + 100.0 z_c1_dN <= 87.2575
  TravelSV_c2_c1: tauS_c2 - tauS_c1 + 100.0 z_c2_c1 <= 85.815
  TravelSV_c2_c3: tauS_c2 - tauS_c3 + 100.0 z_c2_c3 <= 87.41
  TravelSV_c2_c4: tauS_c2 - tauS_c4 + 100.0 z_c2_c4 <= 85.745
  TravelSV_c2_c5: tauS_c2 - tauS_c5 + 100.0 z_c2_c5 <= 85.0275
  TravelSV_c2_dN: tauS_c2 - tauS_dN + 100.0 z_c2_dN <= 90.5
  TravelSV_c3_c1: tauS_c3 - tauS_c1 + 100.0 z_c3_c1 <= 81.32
  TravelSV_c3_c2: tauS_c3 - tauS_c2 + 100.0 z_c3_c2 <= 87.41
  TravelSV_c3_c4: tauS_c3 - tauS_c4 + 100.0 z_c3_c4 <= 86.1625
  TravelSV_c3_c5: tauS_c3 - tauS_c5 + 100.0 z_c3_c5 <= 86.97
  TravelSV_c3_dN: tauS_c3 - tauS_dN + 100.0 z_c3_dN <= 86.0575
  TravelSV_c4_c1: tauS_c4 - tauS_c1 + 100.0 z_c4_c1 <= 82.35
  TravelSV_c4_c2: tauS_c4 - tauS_c2 + 100.0 z_c4_c2 <= 85.745
  TravelSV_c4_c3: tauS_c4 - tauS_c3 + 100.0 z_c4_c3 <= 86.1625
  TravelSV_c4_c5: tauS_c4 - tauS_c5 + 100.0 z_c4_c5 <= 89.9375
  TravelSV_c4_dN: tauS_c4 - tauS_dN + 100.0 z_c4_dN <= 85.625
  TravelSV_c5_c1: tauS_c5 - tauS_c1 + 100.0 z_c5_c1 <= 80.68
  TravelSV_c5_c2: tauS_c5 - tauS_c2 + 100.0 z_c5_c2 <= 85.0275
  TravelSV_c5_c3: tauS_c5 - tauS_c3 + 100.0 z_c5_c3 <= 86.97
  TravelSV_c5_c4: tauS_c5 - tauS_c4 + 100.0 z_c5_c4 <= 89.9375
  TravelSV_c5_dN: tauS_c5 - tauS_dN + 100.0 z_c5_dN <= 84.5075
  time_window_c1_e: tauD_c1 + 8.0 o_1 >= 80.0
  time_window_c1_l: tauD_c1 + 8.0 o_1 <= 100.0
  time_window_c2_e: tauD_c2 + 8.0 o_2 >= 20.0
  time_window_c2_l: tauD_c2 + 8.0 o_2 <= 40.0
  time_window_c3_e: tauD_c3 + 8.0 o_3 >= 0.0
  time_window_c3_l: tauD_c3 + 8.0 o_3 <= 20.0
  time_window_c4_e: tauD_c4 + 8.0 o_4 >= 0.0
  time_window_c4_l: tauD_c4 + 8.0 o_4 <= 100.0
  time_window_c5_e: tauD_c5 + 8.0 o_5 >= 40.0
  time_window_c5_l: tauD_c5 + 8.0 o_5 <= 60.0
  SyncA_c1_c2_c2: 3.0 o_1 + 100.0 x_c1_c2 - tauD_c2 - 6.185 z_c1_c2 + [ tauS_c2 * z_c1_c2 ] <= 93.815
  SyncA_c1_c2_c3: 3.0 o_1 + 100.0 x_c1_c2 - tauD_c2 - 10.68 z_c1_c3 + [ tauS_c3 * z_c1_c3 ] <= 93.815
  SyncA_c1_c2_c4: 3.0 o_1 + 100.0 x_c1_c2 - tauD_c2 - 9.65 z_c1_c4 + [ tauS_c4 * z_c1_c4 ] <= 93.815
  SyncA_c1_c2_c5: 3.0 o_1 + 100.0 x_c1_c2 - tauD_c2 - 11.32 z_c1_c5 + [ tauS_c5 * z_c1_c5 ] <= 93.815
  SyncA_c1_c2_dN: 3.0 o_1 + 100.0 x_c1_c2 - tauD_c2 - 4.7425 z_c1_dN + [ tauS_dN * z_c1_dN ] <= 93.815
  SyncA_c1_c3_c2: 3.0 o_1 + 100.0 x_c1_c3 - tauD_c3 - 6.185 z_c1_c2 + [ tauS_c2 * z_c1_c2 ] <= 89.32
  SyncA_c1_c3_c3: 3.0 o_1 + 100.0 x_c1_c3 - tauD_c3 - 10.68 z_c1_c3 + [ tauS_c3 * z_c1_c3 ] <= 89.32
  SyncA_c1_c3_c4: 3.0 o_1 + 100.0 x_c1_c3 - tauD_c3 - 9.65 z_c1_c4 + [ tauS_c4 * z_c1_c4 ] <= 89.32
  SyncA_c1_c3_c5: 3.0 o_1 + 100.0 x_c1_c3 - tauD_c3 - 11.32 z_c1_c5 + [ tauS_c5 * z_c1_c5 ] <= 89.32
  SyncA_c1_c3_dN: 3.0 o_1 + 100.0 x_c1_c3 - tauD_c3 - 4.7425 z_c1_dN + [ tauS_dN * z_c1_dN ] <= 89.32
  SyncA_c1_c4_c2: 3.0 o_1 + 100.0 x_c1_c4 - tauD_c4 - 6.185 z_c1_c2 + [ tauS_c2 * z_c1_c2 ] <= 90.35
  SyncA_c1_c4_c3: 3.0 o_1 + 100.0 x_c1_c4 - tauD_c4 - 10.68 z_c1_c3 + [ tauS_c3 * z_c1_c3 ] <= 90.35
  SyncA_c1_c4_c4: 3.0 o_1 + 100.0 x_c1_c4 - tauD_c4 - 9.65 z_c1_c4 + [ tauS_c4 * z_c1_c4 ] <= 90.35
  SyncA_c1_c4_c5: 3.0 o_1 + 100.0 x_c1_c4 - tauD_c4 - 11.32 z_c1_c5 + [ tauS_c5 * z_c1_c5 ] <= 90.35
  SyncA_c1_c4_dN: 3.0 o_1 + 100.0 x_c1_c4 - tauD_c4 - 4.7425 z_c1_dN + [ tauS_dN * z_c1_dN ] <= 90.35
  SyncA_c1_c5_c2: 3.0 o_1 + 100.0 x_c1_c5 - tauD_c5 - 6.185 z_c1_c2 + [ tauS_c2 * z_c1_c2 ] <= 88.68
  SyncA_c1_c5_c3: 3.0 o_1 + 100.0 x_c1_c5 - tauD_c5 - 10.68 z_c1_c3 + [ tauS_c3 * z_c1_c3 ] <= 88.68
  SyncA_c1_c5_c4: 3.0 o_1 + 100.0 x_c1_c5 - tauD_c5 - 9.65 z_c1_c4 + [ tauS_c4 * z_c1_c4 ] <= 88.68
  SyncA_c1_c5_c5: 3.0 o_1 + 100.0 x_c1_c5 - tauD_c5 - 11.32 z_c1_c5 + [ tauS_c5 * z_c1_c5 ] <= 88.68
  SyncA_c1_c5_dN: 3.0 o_1 + 100.0 x_c1_c5 - tauD_c5 - 4.7425 z_c1_dN + [ tauS_dN * z_c1_dN ] <= 88.68
  SyncA_c1_dN_c2: 3.0 o_1 + 100.0 x_c1_dN - tauD_dN - 6.185 z_c1_c2 + [ tauS_c2 * z_c1_c2 ] <= 95.2575
  SyncA_c1_dN_c3: 3.0 o_1 + 100.0 x_c1_dN - tauD_dN - 10.68 z_c1_c3 + [ tauS_c3 * z_c1_c3 ] <= 95.2575
  SyncA_c1_dN_c4: 3.0 o_1 + 100.0 x_c1_dN - tauD_dN - 9.65 z_c1_c4 + [ tauS_c4 * z_c1_c4 ] <= 95.2575
  SyncA_c1_dN_c5: 3.0 o_1 + 100.0 x_c1_dN - tauD_dN - 11.32 z_c1_c5 + [ tauS_c5 * z_c1_c5 ] <= 95.2575
  SyncA_c1_dN_dN: 3.0 o_1 + 100.0 x_c1_dN - tauD_dN - 4.7425 z_c1_dN + [ tauS_dN * z_c1_dN ] <= 95.2575
  SyncA_c2_c1_c1: 6.0 o_2 + 100.0 x_c2_c1 - tauD_c1 - 6.185 z_c2_c1 + [ tauS_c1 * z_c2_c1 ] <= 93.815
  SyncA_c2_c1_c3: 6.0 o_2 + 100.0 x_c2_c1 - tauD_c1 - 4.59 z_c2_c3 + [ tauS_c3 * z_c2_c3 ] <= 93.815
  SyncA_c2_c1_c4: 6.0 o_2 + 100.0 x_c2_c1 - tauD_c1 - 6.255 z_c2_c4 + [ tauS_c4 * z_c2_c4 ] <= 93.815
  SyncA_c2_c1_c5: 6.0 o_2 + 100.0 x_c2_c1 - tauD_c1 - 6.9725 z_c2_c5 + [ tauS_c5 * z_c2_c5 ] <= 93.815
  SyncA_c2_c1_dN: 6.0 o_2 + 100.0 x_c2_c1 - tauD_c1 - 1.5 z_c2_dN + [ tauS_dN * z_c2_dN ] <= 93.815
  SyncA_c2_c3_c1: 6.0 o_2 + 100.0 x_c2_c3 - tauD_c3 - 6.185 z_c2_c1 + [ tauS_c1 * z_c2_c1 ] <= 95.41
  SyncA_c2_c3_c3: 6.0 o_2 + 100.0 x_c2_c3 - tauD_c3 - 4.59 z_c2_c3 + [ tauS_c3 * z_c2_c3 ] <= 95.41
  SyncA_c2_c3_c4: 6.0 o_2 + 100.0 x_c2_c3 - tauD_c3 - 6.255 z_c2_c4 + [ tauS_c4 * z_c2_c4 ] <= 95.41
  SyncA_c2_c3_c5: 6.0 o_2 + 100.0 x_c2_c3 - tauD_c3 - 6.9725 z_c2_c5 + [ tauS_c5 * z_c2_c5 ] <= 95.41
  SyncA_c2_c3_dN: 6.0 o_2 + 100.0 x_c2_c3 - tauD_c3 - 1.5 z_c2_dN + [ tauS_dN * z_c2_dN ] <= 95.41
  SyncA_c2_c4_c1: 6.0 o_2 + 100.0 x_c2_c4 - tauD_c4 - 6.185 z_c2_c1 + [ tauS_c1 * z_c2_c1 ] <= 93.745
  SyncA_c2_c4_c3: 6.0 o_2 + 100.0 x_c2_c4 - tauD_c4 - 4.59 z_c2_c3 + [ tauS_c3 * z_c2_c3 ] <= 93.745
  SyncA_c2_c4_c4: 6.0 o_2 + 100.0 x_c2_c4 - tauD_c4 - 6.255 z_c2_c4 + [ tauS_c4 * z_c2_c4 ] <= 93.745
  SyncA_c2_c4_c5: 6.0 o_2 + 100.0 x_c2_c4 - tauD_c4 - 6.9725 z_c2_c5 + [ tauS_c5 * z_c2_c5 ] <= 93.745
  SyncA_c2_c4_dN: 6.0 o_2 + 100.0 x_c2_c4 - tauD_c4 - 1.5 z_c2_dN + [ tauS_dN * z_c2_dN ] <= 93.745
  SyncA_c2_c5_c1: 6.0 o_2 + 100.0 x_c2_c5 - tauD_c5 - 6.185 z_c2_c1 + [ tauS_c1 * z_c2_c1 ] <= 93.0275
  SyncA_c2_c5_c3: 6.0 o_2 + 100.0 x_c2_c5 - tauD_c5 - 4.59 z_c2_c3 + [ tauS_c3 * z_c2_c3 ] <= 93.0275
  SyncA_c2_c5_c4: 6.0 o_2 + 100.0 x_c2_c5 - tauD_c5 - 6.255 z_c2_c4 + [ tauS_c4 * z_c2_c4 ] <= 93.0275
  SyncA_c2_c5_c5: 6.0 o_2 + 100.0 x_c2_c5 - tauD_c5 - 6.9725 z_c2_c5 + [ tauS_c5 * z_c2_c5 ] <= 93.0275
  SyncA_c2_c5_dN: 6.0 o_2 + 100.0 x_c2_c5 - tauD_c5 - 1.5 z_c2_dN + [ tauS_dN * z_c2_dN ] <= 93.0275
  SyncA_c2_dN_c1: 6.0 o_2 + 100.0 x_c2_dN - tauD_dN - 6.185 z_c2_c1 + [ tauS_c1 * z_c2_c1 ] <= 98.5
  SyncA_c2_dN_c3: 6.0 o_2 + 100.0 x_c2_dN - tauD_dN - 4.59 z_c2_c3 + [ tauS_c3 * z_c2_c3 ] <= 98.5
  SyncA_c2_dN_c4: 6.0 o_2 + 100.0 x_c2_dN - tauD_dN - 6.255 z_c2_c4 + [ tauS_c4 * z_c2_c4 ] <= 98.5
  SyncA_c2_dN_c5: 6.0 o_2 + 100.0 x_c2_dN - tauD_dN - 6.9725 z_c2_c5 + [ tauS_c5 * z_c2_c5 ] <= 98.5
  SyncA_c2_dN_dN: 6.0 o_2 + 100.0 x_c2_dN - tauD_dN - 1.5 z_c2_dN + [ tauS_dN * z_c2_dN ] <= 98.5
  SyncA_c3_c1_c1: 4.0 o_3 + 100.0 x_c3_c1 - tauD_c1 - 10.68 z_c3_c1 + [ tauS_c1 * z_c3_c1 ] <= 89.32
  SyncA_c3_c1_c2: 4.0 o_3 + 100.0 x_c3_c1 - tauD_c1 - 4.59 z_c3_c2 + [ tauS_c2 * z_c3_c2 ] <= 89.32
  SyncA_c3_c1_c4: 4.0 o_3 + 100.0 x_c3_c1 - tauD_c1 - 5.8375 z_c3_c4 + [ tauS_c4 * z_c3_c4 ] <= 89.32
  SyncA_c3_c1_c5: 4.0 o_3 + 100.0 x_c3_c1 - tauD_c1 - 5.03 z_c3_c5 + [ tauS_c5 * z_c3_c5 ] <= 89.32
  SyncA_c3_c1_dN: 4.0 o_3 + 100.0 x_c3_c1 - tauD_c1 - 5.9425 z_c3_dN + [ tauS_dN * z_c3_dN ] <= 89.32
  SyncA_c3_c2_c1: 4.0 o_3 + 100.0 x_c3_c2 - tauD_c2 - 10.68 z_c3_c1 + [ tauS_c1 * z_c3_c1 ] <= 95.41
  SyncA_c3_c2_c2: 4.0 o_3 + 100.0 x_c3_c2 - tauD_c2 - 4.59 z_c3_c2 + [ tauS_c2 * z_c3_c2 ] <= 95.41
  SyncA_c3_c2_c4: 4.0 o_3 + 100.0 x_c3_c2 - tauD_c2 - 5.8375 z_c3_c4 + [ tauS_c4 * z_c3_c4 ] <= 95.41
  SyncA_c3_c2_c5: 4.0 o_3 + 100.0 x_c3_c2 - tauD_c2 - 5.03 z_c3_c5 + [ tauS_c5 * z_c3_c5 ] <= 95.41
  SyncA_c3_c2_dN: 4.0 o_3 + 100.0 x_c3_c2 - tauD_c2 - 5.9425 z_c3_dN + [ tauS_dN * z_c3_dN ] <= 95.41
  SyncA_c3_c4_c1: 4.0 o_3 + 100.0 x_c3_c4 - tauD_c4 - 10.68 z_c3_c1 + [ tauS_c1 * z_c3_c1 ] <= 94.1625
  SyncA_c3_c4_c2: 4.0 o_3 + 100.0 x_c3_c4 - tauD_c4 - 4.59 z_c3_c2 + [ tauS_c2 * z_c3_c2 ] <= 94.1625
  SyncA_c3_c4_c4: 4.0 o_3 + 100.0 x_c3_c4 - tauD_c4 - 5.8375 z_c3_c4 + [ tauS_c4 * z_c3_c4 ] <= 94.1625
  SyncA_c3_c4_c5: 4.0 o_3 + 100.0 x_c3_c4 - tauD_c4 - 5.03 z_c3_c5 + [ tauS_c5 * z_c3_c5 ] <= 94.1625
  SyncA_c3_c4_dN: 4.0 o_3 + 100.0 x_c3_c4 - tauD_c4 - 5.9425 z_c3_dN + [ tauS_dN * z_c3_dN ] <= 94.1625
  SyncA_c3_c5_c1: 4.0 o_3 + 100.0 x_c3_c5 - tauD_c5 - 10.68 z_c3_c1 + [ tauS_c1 * z_c3_c1 ] <= 94.97
  SyncA_c3_c5_c2: 4.0 o_3 + 100.0 x_c3_c5 - tauD_c5 - 4.59 z_c3_c2 + [ tauS_c2 * z_c3_c2 ] <= 94.97
  SyncA_c3_c5_c4: 4.0 o_3 + 100.0 x_c3_c5 - tauD_c5 - 5.8375 z_c3_c4 + [ tauS_c4 * z_c3_c4 ] <= 94.97
  SyncA_c3_c5_c5: 4.0 o_3 + 100.0 x_c3_c5 - tauD_c5 - 5.03 z_c3_c5 + [ tauS_c5 * z_c3_c5 ] <= 94.97
  SyncA_c3_c5_dN: 4.0 o_3 + 100.0 x_c3_c5 - tauD_c5 - 5.9425 z_c3_dN + [ tauS_dN * z_c3_dN ] <= 94.97
  SyncA_c3_dN_c1: 4.0 o_3 + 100.0 x_c3_dN - tauD_dN - 10.68 z_c3_c1 + [ tauS_c1 * z_c3_c1 ] <= 94.0575
  SyncA_c3_dN_c2: 4.0 o_3 + 100.0 x_c3_dN - tauD_dN - 4.59 z_c3_c2 + [ tauS_c2 * z_c3_c2 ] <= 94.0575
  SyncA_c3_dN_c4: 4.0 o_3 + 100.0 x_c3_dN - tauD_dN - 5.8375 z_c3_c4 + [ tauS_c4 * z_c3_c4 ] <= 94.0575
  SyncA_c3_dN_c5: 4.0 o_3 + 100.0 x_c3_dN - tauD_dN - 5.03 z_c3_c5 + [ tauS_c5 * z_c3_c5 ] <= 94.0575
  SyncA_c3_dN_dN: 4.0 o_3 + 100.0 x_c3_dN - tauD_dN - 5.9425 z_c3_dN + [ tauS_dN * z_c3_dN ] <= 94.0575
  SyncA_c4_c1_c1: 5.0 o_4 + 100.0 x_c4_c1 - tauD_c1 - 9.65 z_c4_c1 + [ tauS_c1 * z_c4_c1 ] <= 90.35
  SyncA_c4_c1_c2: 5.0 o_4 + 100.0 x_c4_c1 - tauD_c1 - 6.255 z_c4_c2 + [ tauS_c2 * z_c4_c2 ] <= 90.35
  SyncA_c4_c1_c3: 5.0 o_4 + 100.0 x_c4_c1 - tauD_c1 - 5.8375 z_c4_c3 + [ tauS_c3 * z_c4_c3 ] <= 90.35
  SyncA_c4_c1_c5: 5.0 o_4 + 100.0 x_c4_c1 - tauD_c1 - 2.0625 z_c4_c5 + [ tauS_c5 * z_c4_c5 ] <= 90.35
  SyncA_c4_c1_dN: 5.0 o_4 + 100.0 x_c4_c1 - tauD_c1 - 6.375 z_c4_dN + [ tauS_dN * z_c4_dN ] <= 90.35
  SyncA_c4_c2_c1: 5.0 o_4 + 100.0 x_c4_c2 - tauD_c2 - 9.65 z_c4_c1 + [ tauS_c1 * z_c4_c1 ] <= 93.745
  SyncA_c4_c2_c2: 5.0 o_4 + 100.0 x_c4_c2 - tauD_c2 - 6.255 z_c4_c2 + [ tauS_c2 * z_c4_c2 ] <= 93.745
  SyncA_c4_c2_c3: 5.0 o_4 + 100.0 x_c4_c2 - tauD_c2 - 5.8375 z_c4_c3 + [ tauS_c3 * z_c4_c3 ] <= 93.745
  SyncA_c4_c2_c5: 5.0 o_4 + 100.0 x_c4_c2 - tauD_c2 - 2.0625 z_c4_c5 + [ tauS_c5 * z_c4_c5 ] <= 93.745
  SyncA_c4_c2_dN: 5.0 o_4 + 100.0 x_c4_c2 - tauD_c2 - 6.375 z_c4_dN + [ tauS_dN * z_c4_dN ] <= 93.745
  SyncA_c4_c3_c1: 5.0 o_4 + 100.0 x_c4_c3 - tauD_c3 - 9.65 z_c4_c1 + [ tauS_c1 * z_c4_c1 ] <= 94.1625
  SyncA_c4_c3_c2: 5.0 o_4 + 100.0 x_c4_c3 - tauD_c3 - 6.255 z_c4_c2 + [ tauS_c2 * z_c4_c2 ] <= 94.1625
  SyncA_c4_c3_c3: 5.0 o_4 + 100.0 x_c4_c3 - tauD_c3 - 5.8375 z_c4_c3 + [ tauS_c3 * z_c4_c3 ] <= 94.1625
  SyncA_c4_c3_c5: 5.0 o_4 + 100.0 x_c4_c3 - tauD_c3 - 2.0625 z_c4_c5 + [ tauS_c5 * z_c4_c5 ] <= 94.1625
  SyncA_c4_c3_dN: 5.0 o_4 + 100.0 x_c4_c3 - tauD_c3 - 6.375 z_c4_dN + [ tauS_dN * z_c4_dN ] <= 94.1625
  SyncA_c4_c5_c1: 5.0 o_4 + 100.0 x_c4_c5 - tauD_c5 - 9.65 z_c4_c1 + [ tauS_c1 * z_c4_c1 ] <= 97.9375
  SyncA_c4_c5_c2: 5.0 o_4 + 100.0 x_c4_c5 - tauD_c5 - 6.255 z_c4_c2 + [ tauS_c2 * z_c4_c2 ] <= 97.9375
  SyncA_c4_c5_c3: 5.0 o_4 + 100.0 x_c4_c5 - tauD_c5 - 5.8375 z_c4_c3 + [ tauS_c3 * z_c4_c3 ] <= 97.9375
  SyncA_c4_c5_c5: 5.0 o_4 + 100.0 x_c4_c5 - tauD_c5 - 2.0625 z_c4_c5 + [ tauS_c5 * z_c4_c5 ] <= 97.9375
  SyncA_c4_c5_dN: 5.0 o_4 + 100.0 x_c4_c5 - tauD_c5 - 6.375 z_c4_dN + [ tauS_dN * z_c4_dN ] <= 97.9375
  SyncA_c4_dN_c1: 5.0 o_4 + 100.0 x_c4_dN - tauD_dN - 9.65 z_c4_c1 + [ tauS_c1 * z_c4_c1 ] <= 93.625
  SyncA_c4_dN_c2: 5.0 o_4 + 100.0 x_c4_dN - tauD_dN - 6.255 z_c4_c2 + [ tauS_c2 * z_c4_c2 ] <= 93.625
  SyncA_c4_dN_c3: 5.0 o_4 + 100.0 x_c4_dN - tauD_dN - 5.8375 z_c4_c3 + [ tauS_c3 * z_c4_c3 ] <= 93.625
  SyncA_c4_dN_c5: 5.0 o_4 + 100.0 x_c4_dN - tauD_dN - 2.0625 z_c4_c5 + [ tauS_c5 * z_c4_c5 ] <= 93.625
  SyncA_c4_dN_dN: 5.0 o_4 + 100.0 x_c4_dN - tauD_dN - 6.375 z_c4_dN + [ tauS_dN * z_c4_dN ] <= 93.625
  SyncA_c5_c1_c1: 5.0 o_5 + 100.0 x_c5_c1 - tauD_c1 - 11.32 z_c5_c1 + [ tauS_c1 * z_c5_c1 ] <= 88.68
  SyncA_c5_c1_c2: 5.0 o_5 + 100.0 x_c5_c1 - tauD_c1 - 6.9725 z_c5_c2 + [ tauS_c2 * z_c5_c2 ] <= 88.68
  SyncA_c5_c1_c3: 5.0 o_5 + 100.0 x_c5_c1 - tauD_c1 - 5.03 z_c5_c3 + [ tauS_c3 * z_c5_c3 ] <= 88.68
  SyncA_c5_c1_c4: 5.0 o_5 + 100.0 x_c5_c1 - tauD_c1 - 2.0625 z_c5_c4 + [ tauS_c4 * z_c5_c4 ] <= 88.68
  SyncA_c5_c1_dN: 5.0 o_5 + 100.0 x_c5_c1 - tauD_c1 - 7.4925 z_c5_dN + [ tauS_dN * z_c5_dN ] <= 88.68
  SyncA_c5_c2_c1: 5.0 o_5 + 100.0 x_c5_c2 - tauD_c2 - 11.32 z_c5_c1 + [ tauS_c1 * z_c5_c1 ] <= 93.0275
  SyncA_c5_c2_c2: 5.0 o_5 + 100.0 x_c5_c2 - tauD_c2 - 6.9725 z_c5_c2 + [ tauS_c2 * z_c5_c2 ] <= 93.0275
  SyncA_c5_c2_c3: 5.0 o_5 + 100.0 x_c5_c2 - tauD_c2 - 5.03 z_c5_c3 + [ tauS_c3 * z_c5_c3 ] <= 93.0275
  SyncA_c5_c2_c4: 5.0 o_5 + 100.0 x_c5_c2 - tauD_c2 - 2.0625 z_c5_c4 + [ tauS_c4 * z_c5_c4 ] <= 93.0275
  SyncA_c5_c2_dN: 5.0 o_5 + 100.0 x_c5_c2 - tauD_c2 - 7.4925 z_c5_dN + [ tauS_dN * z_c5_dN ] <= 93.0275
  SyncA_c5_c3_c1: 5.0 o_5 + 100.0 x_c5_c3 - tauD_c3 - 11.32 z_c5_c1 + [ tauS_c1 * z_c5_c1 ] <= 94.97
  SyncA_c5_c3_c2: 5.0 o_5 + 100.0 x_c5_c3 - tauD_c3 - 6.9725 z_c5_c2 + [ tauS_c2 * z_c5_c2 ] <= 94.97
  SyncA_c5_c3_c3: 5.0 o_5 + 100.0 x_c5_c3 - tauD_c3 - 5.03 z_c5_c3 + [ tauS_c3 * z_c5_c3 ] <= 94.97
  SyncA_c5_c3_c4: 5.0 o_5 + 100.0 x_c5_c3 - tauD_c3 - 2.0625 z_c5_c4 + [ tauS_c4 * z_c5_c4 ] <= 94.97
  SyncA_c5_c3_dN: 5.0 o_5 + 100.0 x_c5_c3 - tauD_c3 - 7.4925 z_c5_dN + [ tauS_dN * z_c5_dN ] <= 94.97
  SyncA_c5_c4_c1: 5.0 o_5 + 100.0 x_c5_c4 - tauD_c4 - 11.32 z_c5_c1 + [ tauS_c1 * z_c5_c1 ] <= 97.9375
  SyncA_c5_c4_c2: 5.0 o_5 + 100.0 x_c5_c4 - tauD_c4 - 6.9725 z_c5_c2 + [ tauS_c2 * z_c5_c2 ] <= 97.9375
  SyncA_c5_c4_c3: 5.0 o_5 + 100.0 x_c5_c4 - tauD_c4 - 5.03 z_c5_c3 + [ tauS_c3 * z_c5_c3 ] <= 97.9375
  SyncA_c5_c4_c4: 5.0 o_5 + 100.0 x_c5_c4 - tauD_c4 - 2.0625 z_c5_c4 + [ tauS_c4 * z_c5_c4 ] <= 97.9375
  SyncA_c5_c4_dN: 5.0 o_5 + 100.0 x_c5_c4 - tauD_c4 - 7.4925 z_c5_dN + [ tauS_dN * z_c5_dN ] <= 97.9375
  SyncA_c5_dN_c1: 5.0 o_5 + 100.0 x_c5_dN - tauD_dN - 11.32 z_c5_c1 + [ tauS_c1 * z_c5_c1 ] <= 92.5075
  SyncA_c5_dN_c2: 5.0 o_5 + 100.0 x_c5_dN - tauD_dN - 6.9725 z_c5_c2 + [ tauS_c2 * z_c5_c2 ] <= 92.5075
  SyncA_c5_dN_c3: 5.0 o_5 + 100.0 x_c5_dN - tauD_dN - 5.03 z_c5_c3 + [ tauS_c3 * z_c5_c3 ] <= 92.5075
  SyncA_c5_dN_c4: 5.0 o_5 + 100.0 x_c5_dN - tauD_dN - 2.0625 z_c5_c4 + [ tauS_c4 * z_c5_c4 ] <= 92.5075
  SyncA_c5_dN_dN: 5.0 o_5 + 100.0 x_c5_dN - tauD_dN - 7.4925 z_c5_dN + [ tauS_dN * z_c5_dN ] <= 92.5075
  SVFirst_c1_c2: tauS_c2 - tauD_c1 + 3.0 o_1 - 100.0 z_c1_c2 >= -82.815
  SVFirst_c1_c3: tauS_c3 - tauD_c1 + 3.0 o_1 - 100.0 z_c1_c3 >= -78.32
  SVFirst_c1_c4: tauS_c4 - tauD_c1 + 3.0 o_1 - 100.0 z_c1_c4 >= -79.35
  SVFirst_c1_c5: tauS_c5 - tauD_c1 + 3.0 o_1 - 100.0 z_c1_c5 >= -77.68
  SVFirst_c1_dN:  tauS_dN - tauD_c1 + 3.0 o_1 - 100.0 z_c1_dN >= -84.2575
  SVFirst_c2_c1: tauS_c1 - tauD_c2 + 6.0 o_2 - 100.0 z_c2_c1 >= -79.815
  SVFirst_c2_c3: tauS_c3 - tauD_c2 + 6.0 o_2 - 100.0 z_c2_c3 >= -81.41
  SVFirst_c2_c4: tauS_c4 - tauD_c2 + 6.0 o_2 - 100.0 z_c2_c4 >= -79.745
  SVFirst_c2_c5: tauS_c5 - tauD_c2 + 6.0 o_2 - 100.0 z_c2_c5 >= -79.0275
  SVFirst_c2_dN:  tauS_dN - tauD_c2 + 6.0 o_2 - 100.0 z_c2_dN >= -84.5
  SVFirst_c3_c1: tauS_c1 - tauD_c3 + 4.0 o_3 - 100.0 z_c3_c1 >= -77.32
  SVFirst_c3_c2: tauS_c2 - tauD_c3 + 4.0 o_3 - 100.0 z_c3_c2 >= -83.41
  SVFirst_c3_c4: tauS_c4 - tauD_c3 + 4.0 o_3 - 100.0 z_c3_c4 >= -82.1625
  SVFirst_c3_c5: tauS_c5 - tauD_c3 + 4.0 o_3 - 100.0 z_c3_c5 >= -82.97
  SVFirst_c3_dN:  tauS_dN - tauD_c3 + 4.0 o_3 - 100.0 z_c3_dN >= -82.0575
  SVFirst_c4_c1: tauS_c1 - tauD_c4 + 5.0 o_4 - 100.0 z_c4_c1 >= -77.35
  SVFirst_c4_c2: tauS_c2 - tauD_c4 + 5.0 o_4 - 100.0 z_c4_c2 >= -80.745
  SVFirst_c4_c3: tauS_c3 - tauD_c4 + 5.0 o_4 - 100.0 z_c4_c3 >= -81.1625
  SVFirst_c4_c5: tauS_c5 - tauD_c4 + 5.0 o_4 - 100.0 z_c4_c5 >= -84.9375
  SVFirst_c4_dN:  tauS_dN - tauD_c4 + 5.0 o_4 - 100.0 z_c4_dN >= -80.625
  SVFirst_c5_c1: tauS_c1 - tauD_c5 + 5.0 o_5 - 100.0 z_c5_c1 >= -75.68
  SVFirst_c5_c2: tauS_c2 - tauD_c5 + 5.0 o_5 - 100.0 z_c5_c2 >= -80.0275
  SVFirst_c5_c3: tauS_c3 - tauD_c5 + 5.0 o_5 - 100.0 z_c5_c3 >= -81.97
  SVFirst_c5_c4: tauS_c4 - tauD_c5 + 5.0 o_5 - 100.0 z_c5_c4 >= -84.9375
  SVFirst_c5_dN:  tauS_dN - tauD_c5 + 5.0 o_5 - 100.0 z_c5_dN >= -79.5075
  Precedence_Swap_c1:  p_1 - z_d0_c1 - z_c2_c1 - z_c3_c1 - z_c4_c1 - z_c5_c1 = 0
  Precedence_Swap_c2:  p_2 - z_d0_c2 - z_c1_c2 - z_c3_c2 - z_c4_c2 - z_c5_c2 = 0
  Precedence_Swap_c3:  p_3 - z_d0_c3 - z_c1_c3 - z_c2_c3 - z_c4_c3 - z_c5_c3 = 0
  Precedence_Swap_c4:  p_4 - z_d0_c4 - z_c1_c4 - z_c2_c4 - z_c3_c4 - z_c5_c4 = 0
  Precedence_Swap_c5:  p_5 - z_d0_c5 - z_c1_c5 - z_c2_c5 - z_c3_c5 - z_c4_c5 = 0
  Order_c1:  o_1 - p_1 <= 0
  Order_c2:  o_2 - p_2 <= 0
  Order_c3:  o_3 - p_3 <= 0
  Order_c4:  o_4 - p_4 <= 0
  Order_c5:  o_5 - p_5 <= 0
  WorkingTimeS_c1:  tauS_c1 <= 87.2575
  WorkingTimeS_c2:  tauS_c2 <= 90.5
  WorkingTimeS_c3:  tauS_c3 <= 86.0575
  WorkingTimeS_c4:  tauS_c4 <= 85.625
  WorkingTimeS_c5:  tauS_c5 <= 84.5075
  Freight_c1_c2:  k_c2 - k_c1 + 100.0 x_c1_c2 <= 96.0
  Freight_c1_c3:  k_c3 - k_c1 + 100.0 x_c1_c3 <= 96.0
  Freight_c1_c4:  k_c4 - k_c1 + 100.0 x_c1_c4 <= 96.0
  Freight_c1_c5:  k_c5 - k_c1 + 100.0 x_c1_c5 <= 96.0
  Freight_c1_dN:  k_dN - k_c1 + 100.0 x_c1_dN <= 96.0
  Freight_c2_c1:  k_c1 - k_c2 + 100.0 x_c2_c1 <= 92.0
  Freight_c2_c3:  k_c3 - k_c2 + 100.0 x_c2_c3 <= 92.0
  Freight_c2_c4:  k_c4 - k_c2 + 100.0 x_c2_c4 <= 92.0
  Freight_c2_c5:  k_c5 - k_c2 + 100.0 x_c2_c5 <= 92.0
  Freight_c2_dN:  k_dN - k_c2 + 100.0 x_c2_dN <= 92.0
  Freight_c3_c1:  k_c1 - k_c3 + 100.0 x_c3_c1 <= 94.0
  Freight_c3_c2:  k_c2 - k_c3 + 100.0 x_c3_c2 <= 94.0
  Freight_c3_c4:  k_c4 - k_c3 + 100.0 x_c3_c4 <= 94.0
  Freight_c3_c5:  k_c5 - k_c3 + 100.0 x_c3_c5 <= 94.0
  Freight_c3_dN:  k_dN - k_c3 + 100.0 x_c3_dN <= 94.0
  Freight_c4_c1:  k_c1 - k_c4 + 100.0 x_c4_c1 <= 94.0
  Freight_c4_c2:  k_c2 - k_c4 + 100.0 x_c4_c2 <= 94.0
  Freight_c4_c3:  k_c3 - k_c4 + 100.0 x_c4_c3 <= 94.0
  Freight_c4_c5:  k_c5 - k_c4 + 100.0 x_c4_c5 <= 94.0
  Freight_c4_dN:  k_dN - k_c4 + 100.0 x_c4_dN <= 94.0
  Freight_c5_c1:  k_c1 - k_c5 + 100.0 x_c5_c1 <= 92.0
  Freight_c5_c2:  k_c2 - k_c5 + 100.0 x_c5_c2 <= 92.0
  Freight_c5_c3:  k_c3 - k_c5 + 100.0 x_c5_c3 <= 92.0
  Freight_c5_c4:  k_c4 - k_c5 + 100.0 x_c5_c4 <= 92.0
  Freight_c5_dN:  k_dN - k_c5 + 100.0 x_c5_dN <= 92.0
  FuelDV_d0_c1:  phi_c1 + 6.2691 x_d0_c1 <= 10.0
  FuelDV_d0_c2:  phi_c2 + 5.4014 x_d0_c2 <= 10.0
  FuelDV_d0_c3:  phi_c3 + 6.5902 x_d0_c3 <= 10.0
  FuelDV_d0_c4:  phi_c4 + 6.7059999999999995 x_d0_c4 <= 10.0
  FuelDV_d0_c5:  phi_c5 + 7.005 x_d0_c5 <= 10.0
  FuelDV_c1_c2:  phi_c2 - phi_c1 + 6.6551 x_c1_c2 + [ phi_c1 * p_1 - 5.0 x_c1_c2 * p_1 ] <= 5.0
  FuelDV_c1_c3:  phi_c3 - phi_c1 + 7.8580000000000005 x_c1_c3 + [ phi_c1 * p_1 - 5.0 x_c1_c3 * p_1 ] <= 5.0
  FuelDV_c1_c4:  phi_c4 - phi_c1 + 7.5823 x_c1_c4 + [ phi_c1 * p_1 - 5.0 x_c1_c4 * p_1 ] <= 5.0
  FuelDV_c1_c5:  phi_c5 - phi_c1 + 8.0292 x_c1_c5 + [ phi_c1 * p_1 - 5.0 x_c1_c5 * p_1 ] <= 5.0
  FuelDV_c1_dN:  phi_dN - phi_c1 + 6.2691 x_c1_dN + [ phi_c1 * p_1 - 5.0 x_c1_dN * p_1 ] <= 5.0
  FuelDV_c2_c1:  phi_c1 - phi_c2 + 6.6551 x_c2_c1 + [ phi_c2 * p_2 - 5.0 x_c2_c1 * p_2 ] <= 5.0
  FuelDV_c2_c3:  phi_c3 - phi_c2 + 6.2283 x_c2_c3 + [ phi_c2 * p_2 - 5.0 x_c2_c3 * p_2 ] <= 5.0
  FuelDV_c2_c4:  phi_c4 - phi_c2 + 6.6738 x_c2_c4 + [ phi_c2 * p_2 - 5.0 x_c2_c4 * p_2 ] <= 5.0
  FuelDV_c2_c5:  phi_c5 - phi_c2 + 6.8658 x_c2_c5 + [ phi_c2 * p_2 - 5.0 x_c2_c5 * p_2 ] <= 5.0
  FuelDV_c2_dN:  phi_dN - phi_c2 + 5.4014 x_c2_dN + [ phi_c2 * p_2 - 5.0 x_c2_dN * p_2 ] <= 5.0
  FuelDV_c3_c1:  phi_c1 - phi_c3 + 7.8580000000000005 x_c3_c1 + [ phi_c3 * p_3 - 5.0 x_c3_c1 * p_3 ] <= 5.0
  FuelDV_c3_c2:  phi_c2 - phi_c3 + 6.2283 x_c3_c2 + [ phi_c3 * p_3 - 5.0 x_c3_c2 * p_3 ] <= 5.0
  FuelDV_c3_c4:  phi_c4 - phi_c3 + 6.5621 x_c3_c4 + [ phi_c3 * p_3 - 5.0 x_c3_c4 * p_3 ] <= 5.0
  FuelDV_c3_c5:  phi_c5 - phi_c3 + 6.346 x_c3_c5 + [ phi_c3 * p_3 - 5.0 x_c3_c5 * p_3 ] <= 5.0
  FuelDV_c3_dN:  phi_dN - phi_c3 + 6.5902 x_c3_dN + [ phi_c3 * p_3 - 5.0 x_c3_dN * p_3 ] <= 5.0
  FuelDV_c4_c1:  phi_c1 - phi_c4 + 7.5823 x_c4_c1 + [ phi_c4 * p_4 - 5.0 x_c4_c1 * p_4 ] <= 5.0
  FuelDV_c4_c2:  phi_c2 - phi_c4 + 6.6738 x_c4_c2 + [ phi_c4 * p_4 - 5.0 x_c4_c2 * p_4 ] <= 5.0
  FuelDV_c4_c3:  phi_c3 - phi_c4 + 6.5621 x_c4_c3 + [ phi_c4 * p_4 - 5.0 x_c4_c3 * p_4 ] <= 5.0
  FuelDV_c4_c5:  phi_c5 - phi_c4 + 5.5519 x_c4_c5 + [ phi_c4 * p_4 - 5.0 x_c4_c5 * p_4 ] <= 5.0
  FuelDV_c4_dN:  phi_dN - phi_c4 + 6.7059999999999995 x_c4_dN + [ phi_c4 * p_4 - 5.0 x_c4_dN * p_4 ] <= 5.0
  FuelDV_c5_c1:  phi_c1 - phi_c5 + 8.0292 x_c5_c1 + [ phi_c5 * p_5 - 5.0 x_c5_c1 * p_5 ] <= 5.0
  FuelDV_c5_c2:  phi_c2 - phi_c5 + 6.8658 x_c5_c2 + [ phi_c5 * p_5 - 5.0 x_c5_c2 * p_5 ] <= 5.0
  FuelDV_c5_c3:  phi_c3 - phi_c5 + 6.346 x_c5_c3 + [ phi_c5 * p_5 - 5.0 x_c5_c3 * p_5 ] <= 5.0
  FuelDV_c5_c4:  phi_c4 - phi_c5 + 5.5519 x_c5_c4 + [ phi_c5 * p_5 - 5.0 x_c5_c4 * p_5 ] <= 5.0
  FuelDV_c5_dN:  phi_dN - phi_c5 + 7.005 x_c5_dN + [ phi_c5 * p_5 - 5.0 x_c5_dN * p_5 ] <= 5.0
  FreightSV_c1_c2:  pi_c2 - pi_c1 - phi_c1 + 25.0 z_c1_c2 <= 20.0
  FreightSV_c1_c3:  pi_c3 - pi_c1 - phi_c1 + 25.0 z_c1_c3 <= 20.0
  FreightSV_c1_c4:  pi_c4 - pi_c1 - phi_c1 + 25.0 z_c1_c4 <= 20.0
  FreightSV_c1_c5:  pi_c5 - pi_c1 - phi_c1 + 25.0 z_c1_c5 <= 20.0
  FreightSV_c1_dN:  pi_dN - pi_c1 - phi_c1 + 25.0 z_c1_dN <= 20.0
  FreightSV_c2_c1:  pi_c1 - pi_c2 - phi_c2 + 25.0 z_c2_c1 <= 20.0
  FreightSV_c2_c3:  pi_c3 - pi_c2 - phi_c2 + 25.0 z_c2_c3 <= 20.0
  FreightSV_c2_c4:  pi_c4 - pi_c2 - phi_c2 + 25.0 z_c2_c4 <= 20.0
  FreightSV_c2_c5:  pi_c5 - pi_c2 - phi_c2 + 25.0 z_c2_c5 <= 20.0
  FreightSV_c2_dN:  pi_dN - pi_c2 - phi_c2 + 25.0 z_c2_dN <= 20.0
  FreightSV_c3_c1:  pi_c1 - pi_c3 - phi_c3 + 25.0 z_c3_c1 <= 20.0
  FreightSV_c3_c2:  pi_c2 - pi_c3 - phi_c3 + 25.0 z_c3_c2 <= 20.0
  FreightSV_c3_c4:  pi_c4 - pi_c3 - phi_c3 + 25.0 z_c3_c4 <= 20.0
  FreightSV_c3_c5:  pi_c5 - pi_c3 - phi_c3 + 25.0 z_c3_c5 <= 20.0
  FreightSV_c3_dN:  pi_dN - pi_c3 - phi_c3 + 25.0 z_c3_dN <= 20.0
  FreightSV_c4_c1:  pi_c1 - pi_c4 - phi_c4 + 25.0 z_c4_c1 <= 20.0
  FreightSV_c4_c2:  pi_c2 - pi_c4 - phi_c4 + 25.0 z_c4_c2 <= 20.0
  FreightSV_c4_c3:  pi_c3 - pi_c4 - phi_c4 + 25.0 z_c4_c3 <= 20.0
  FreightSV_c4_c5:  pi_c5 - pi_c4 - phi_c4 + 25.0 z_c4_c5 <= 20.0
  FreightSV_c4_dN:  pi_dN - pi_c4 - phi_c4 + 25.0 z_c4_dN <= 20.0
  FreightSV_c5_c1:  pi_c1 - pi_c5 - phi_c5 + 25.0 z_c5_c1 <= 20.0
  FreightSV_c5_c2:  pi_c2 - pi_c5 - phi_c5 + 25.0 z_c5_c2 <= 20.0
  FreightSV_c5_c3:  pi_c3 - pi_c5 - phi_c5 + 25.0 z_c5_c3 <= 20.0
  FreightSV_c5_c4:  pi_c4 - pi_c5 - phi_c5 + 25.0 z_c5_c4 <= 20.0
  FreightSV_c5_dN:  pi_dN - pi_c5 - phi_c5 + 25.0 z_c5_dN <= 20.0
  WorkingTimeD_c1:  tauD_c1 + 8.0 p_1 <= 92.2575
  WorkingTimeD_c2:  tauD_c2 + 8.0 p_2 <= 92.5
  WorkingTimeD_c3:  tauD_c3 + 8.0 p_3 <= 90.0575
  WorkingTimeD_c4:  tauD_c4 + 8.0 p_4 <= 88.625
  WorkingTimeD_c5:  tauD_c5 + 8.0 p_5 <= 87.5075
Bounds
0 <= k_c1 <= 100.0
0 <= k_c2 <= 100.0
0 <= k_c3 <= 100.0
0 <= k_c4 <= 100.0
0 <= k_c5 <= 100.0
0 <= k_dN <= 100.0
0 <= phi_c1 <= 5.0
0 <= phi_c2 <= 5.0
0 <= phi_c3 <= 5.0
0 <= phi_c4 <= 5.0
0 <= phi_c5 <= 5.0
0 <= phi_dN <= 5.0
0 <= pi_c1 <= 25.0
0 <= pi_c2 <= 25.0
0 <= pi_c3 <= 25.0
0 <= pi_c4 <= 25.0
0 <= pi_c5 <= 25.0
0 <= pi_dN <= 25.0
0 <= tauD_c1 <= 100.0
0 <= tauD_c2 <= 100.0
0 <= tauD_c3 <= 100.0
0 <= tauD_c4 <= 100.0
0 <= tauD_c5 <= 100.0
0 <= tauD_d0 <= 100.0
0 <= tauD_dN <= 100.0
0 <= tauS_c1 <= 100.0
0 <= tauS_c2 <= 100.0
0 <= tauS_c3 <= 100.0
0 <= tauS_c4 <= 100.0
0 <= tauS_c5 <= 100.0
0 <= tauS_d0 <= 100.0
0 <= tauS_dN <= 100.0
Generals
  k_c1
  k_c2
  k_c3
  k_c4
  k_c5
  k_dN
  phi_c1
  phi_c2
  phi_c3
  phi_c4
  phi_c5
  phi_dN
  pi_c1
  pi_c2
  pi_c3
  pi_c4
  pi_c5
  pi_dN
  tauD_c1
  tauD_c2
  tauD_c3
  tauD_c4
  tauD_c5
  tauD_d0
  tauD_dN
  tauS_c1
  tauS_c2
  tauS_c3
  tauS_c4
  tauS_c5
  tauS_d0
  tauS_dN
Binary
  o_1
  o_2
  o_3
  o_4
  o_5
  p_1
  p_2
  p_3
  p_4
  p_5
  x_c1_c2
  x_c1_c3
  x_c1_c4
  x_c1_c5
  x_c1_dN
  x_c2_c1
  x_c2_c3
  x_c2_c4
  x_c2_c5
  x_c2_dN
  x_c3_c1
  x_c3_c2
  x_c3_c4
  x_c3_c5
  x_c3_dN
  x_c4_c1
  x_c4_c2
  x_c4_c3
  x_c4_c5
  x_c4_dN
  x_c5_c1
  x_c5_c2
  x_c5_c3
  x_c5_c4
  x_c5_dN
  x_d0_c1
  x_d0_c2
  x_d0_c3
  x_d0_c4
  x_d0_c5
  z_c1_c2
  z_c1_c3
  z_c1_c4
  z_c1_c5
  z_c1_dN
  z_c2_c1
  z_c2_c3
  z_c2_c4
  z_c2_c5
  z_c2_dN
  z_c3_c1
  z_c3_c2
  z_c3_c4
  z_c3_c5
  z_c3_dN
  z_c4_c1
  z_c4_c2
  z_c4_c3
  z_c4_c5
  z_c4_dN
  z_c5_c1
  z_c5_c2
  z_c5_c3
  z_c5_c4
  z_c5_dN
  z_d0_c1
  z_d0_c2
  z_d0_c3
  z_d0_c4
  z_d0_c5
End
